SECTION Graph
Nodes 402
Edges 695
E 1 2 5
E 2 3 5
E 3 4 5
E 4 5 5
E 5 6 5
E 6 7 5
E 7 8 5
E 10 11 5
E 11 12 5
E 12 13 5
E 13 14 5
E 14 15 5
E 15 16 5
E 16 17 5
E 17 18 5
E 18 19 5
E 19 20 5
E 20 21 5
E 21 22 5
E 1 23 13
E 2 24 13
E 3 25 13
E 4 26 13
E 5 27 13
E 6 28 13
E 7 29 13
E 8 30 13
E 9 32 13
E 10 34 13
E 11 35 13
E 12 36 13
E 13 37 13
E 14 38 13
E 15 39 13
E 16 40 13
E 17 41 13
E 18 42 13
E 19 43 13
E 20 44 13
E 21 45 13
E 22 46 13
E 23 24 5
E 24 25 5
E 25 26 5
E 26 27 5
E 27 28 5
E 28 29 5
E 29 30 5
E 30 31 5
E 31 32 5
E 32 33 5
E 33 34 5
E 34 35 5
E 35 36 5
E 36 37 5
E 37 38 5
E 38 39 5
E 39 40 5
E 40 41 5
E 41 42 5
E 42 43 5
E 43 44 5
E 44 45 5
E 45 46 5
E 23 47 13
E 24 48 13
E 25 49 13
E 26 50 13
E 29 53 13
E 30 54 13
E 31 55 13
E 32 56 13
E 33 57 13
E 34 58 13
E 35 59 13
E 36 60 13
E 37 61 13
E 38 62 13
E 39 63 13
E 40 64 13
E 41 65 13
E 42 66 13
E 43 67 13
E 44 68 13
E 45 69 13
E 46 70 13
E 47 48 5
E 48 49 5
E 49 50 5
E 50 51 5
E 51 52 5
E 52 53 5
E 53 54 5
E 54 55 5
E 55 56 5
E 56 57 5
E 57 58 5
E 58 59 5
E 59 60 5
E 60 61 5
E 61 62 5
E 62 63 5
E 63 64 5
E 64 65 5
E 65 66 5
E 66 67 5
E 67 68 5
E 68 69 5
E 69 70 5
E 47 71 13
E 48 72 13
E 50 73 13
E 51 74 13
E 52 75 13
E 54 76 13
E 55 77 13
E 56 78 13
E 57 79 13
E 58 80 13
E 59 81 13
E 62 84 13
E 63 85 13
E 64 86 13
E 65 87 13
E 66 88 13
E 67 89 13
E 68 90 13
E 69 91 13
E 70 92 13
E 71 72 5
E 73 74 5
E 74 75 5
E 76 77 5
E 77 78 5
E 78 79 5
E 79 80 5
E 80 81 5
E 81 82 5
E 82 83 5
E 83 84 5
E 84 85 5
E 85 86 5
E 86 87 5
E 87 88 5
E 88 89 5
E 89 90 5
E 90 91 5
E 91 92 5
E 71 93 13
E 72 94 13
E 73 95 13
E 74 96 13
E 75 97 13
E 76 98 13
E 77 99 13
E 78 100 13
E 79 101 13
E 80 102 13
E 81 103 13
E 83 104 13
E 84 105 13
E 85 106 13
E 87 107 13
E 88 108 13
E 89 109 13
E 92 112 13
E 93 94 5
E 95 96 5
E 96 97 5
E 98 99 5
E 99 100 5
E 100 101 5
E 101 102 5
E 102 103 5
E 104 105 5
E 105 106 5
E 107 108 5
E 108 109 5
E 109 110 5
E 110 111 5
E 111 112 5
E 93 113 13
E 94 114 13
E 95 116 13
E 96 117 13
E 97 118 13
E 98 120 13
E 99 121 13
E 100 122 13
E 101 123 13
E 102 124 13
E 103 125 13
E 104 126 13
E 106 127 13
E 107 128 13
E 108 129 13
E 109 130 13
E 110 131 13
E 111 132 13
E 112 133 13
E 113 114 5
E 114 115 5
E 115 116 5
E 116 117 5
E 117 118 5
E 118 119 5
E 119 120 5
E 120 121 5
E 121 122 5
E 122 123 5
E 123 124 5
E 124 125 5
E 128 129 5
E 129 130 5
E 130 131 5
E 131 132 5
E 132 133 5
E 113 134 13
E 114 135 13
E 115 136 13
E 116 137 13
E 117 138 13
E 118 139 13
E 119 140 13
E 120 141 13
E 121 142 13
E 122 143 13
E 123 144 13
E 124 145 13
E 125 146 13
E 126 148 13
E 127 149 13
E 128 151 13
E 129 152 13
E 130 153 13
E 131 154 13
E 132 155 13
E 133 156 13
E 134 135 5
E 135 136 5
E 136 137 5
E 137 138 5
E 138 139 5
E 139 140 5
E 140 141 5
E 141 142 5
E 142 143 5
E 143 144 5
E 144 145 5
E 145 146 5
E 146 147 5
E 147 148 5
E 149 150 5
E 150 151 5
E 151 152 5
E 152 153 5
E 153 154 5
E 154 155 5
E 155 156 5
E 134 157 13
E 135 158 13
E 137 160 13
E 138 161 13
E 139 162 13
E 140 163 13
E 141 164 13
E 142 165 13
E 143 166 13
E 144 167 13
E 145 168 13
E 146 169 13
E 147 170 13
E 148 171 13
E 149 173 13
E 150 174 13
E 151 175 13
E 152 176 13
E 153 177 13
E 155 178 13
E 156 179 13
E 157 158 5
E 158 159 5
E 159 160 5
E 160 161 5
E 161 162 5
E 162 163 5
E 163 164 5
E 164 165 5
E 165 166 5
E 166 167 5
E 167 168 5
E 168 169 5
E 169 170 5
E 170 171 5
E 171 172 5
E 172 173 5
E 173 174 5
E 174 175 5
E 175 176 5
E 176 177 5
E 178 179 5
E 157 180 13
E 158 181 13
E 159 182 13
E 160 183 13
E 161 184 13
E 163 186 13
E 164 187 13
E 165 188 13
E 166 189 13
E 168 190 13
E 169 191 13
E 170 192 13
E 171 193 13
E 172 194 13
E 173 195 13
E 174 196 13
E 175 197 13
E 176 198 13
E 177 199 13
E 178 200 13
E 180 181 5
E 181 182 5
E 182 183 5
E 183 184 5
E 184 185 5
E 185 186 5
E 186 187 5
E 187 188 5
E 188 189 5
E 190 191 5
E 191 192 5
E 192 193 5
E 193 194 5
E 194 195 5
E 195 196 5
E 196 197 5
E 197 198 5
E 198 199 5
E 200 201 5
E 180 202 13
E 181 203 13
E 182 204 13
E 183 205 13
E 184 206 13
E 185 207 13
E 186 208 13
E 187 209 13
E 188 210 13
E 189 211 13
E 190 212 13
E 191 213 13
E 192 214 13
E 193 215 13
E 194 216 13
E 195 217 13
E 196 218 13
E 197 219 13
E 198 220 13
E 199 221 13
E 200 223 13
E 201 224 13
E 202 203 5
E 203 204 5
E 204 205 5
E 205 206 5
E 206 207 5
E 207 208 5
E 208 209 5
E 209 210 5
E 210 211 5
E 212 213 5
E 213 214 5
E 214 215 5
E 215 216 5
E 216 217 5
E 217 218 5
E 218 219 5
E 219 220 5
E 220 221 5
E 221 222 5
E 222 223 5
E 223 224 5
E 202 225 13
E 203 226 13
E 205 228 13
E 206 229 13
E 207 230 13
E 208 231 13
E 209 232 13
E 210 233 13
E 211 234 13
E 212 236 13
E 213 237 13
E 214 238 13
E 215 239 13
E 217 240 13
E 218 241 13
E 219 242 13
E 220 243 13
E 221 244 13
E 222 245 13
E 223 246 13
E 224 247 13
E 225 226 5
E 226 227 5
E 227 228 5
E 228 229 5
E 229 230 5
E 230 231 5
E 231 232 5
E 232 233 5
E 233 234 5
E 234 235 5
E 235 236 5
E 236 237 5
E 237 238 5
E 238 239 5
E 240 241 5
E 241 242 5
E 242 243 5
E 243 244 5
E 244 245 5
E 245 246 5
E 246 247 5
E 225 248 13
E 226 249 13
E 227 250 13
E 228 251 13
E 230 253 13
E 231 254 13
E 232 255 13
E 233 256 13
E 234 257 13
E 235 258 13
E 236 259 13
E 237 260 13
E 238 261 13
E 239 262 13
E 240 263 13
E 241 264 13
E 242 265 13
E 243 266 13
E 244 267 13
E 247 270 13
E 248 249 5
E 249 250 5
E 250 251 5
E 251 252 5
E 252 253 5
E 253 254 5
E 254 255 5
E 255 256 5
E 256 257 5
E 257 258 5
E 258 259 5
E 259 260 5
E 260 261 5
E 261 262 5
E 263 264 5
E 264 265 5
E 265 266 5
E 266 267 5
E 267 268 5
E 268 269 5
E 269 270 5
E 248 271 13
E 249 272 13
E 251 273 13
E 252 274 13
E 253 275 13
E 254 276 13
E 255 277 13
E 256 278 13
E 257 279 13
E 258 280 13
E 259 281 13
E 262 284 13
E 263 286 13
E 264 287 13
E 265 288 13
E 266 289 13
E 267 290 13
E 268 291 13
E 269 292 13
E 270 293 13
E 271 272 5
E 273 274 5
E 274 275 5
E 275 276 5
E 276 277 5
E 277 278 5
E 278 279 5
E 279 280 5
E 280 281 5
E 281 282 5
E 282 283 5
E 283 284 5
E 284 285 5
E 285 286 5
E 286 287 5
E 287 288 5
E 288 289 5
E 289 290 5
E 290 291 5
E 291 292 5
E 292 293 5
E 271 294 13
E 272 295 13
E 273 296 13
E 274 297 13
E 275 298 13
E 276 299 13
E 277 300 13
E 278 301 13
E 279 302 13
E 281 304 13
E 282 305 13
E 283 306 13
E 284 307 13
E 285 308 13
E 286 309 13
E 287 310 13
E 288 311 13
E 289 312 13
E 290 313 13
E 293 316 13
E 294 295 5
E 296 297 5
E 297 298 5
E 298 299 5
E 299 300 5
E 300 301 5
E 301 302 5
E 302 303 5
E 303 304 5
E 304 305 5
E 305 306 5
E 306 307 5
E 307 308 5
E 308 309 5
E 309 310 5
E 310 311 5
E 311 312 5
E 312 313 5
E 313 314 5
E 314 315 5
E 315 316 5
E 294 317 13
E 295 318 13
E 296 320 13
E 297 321 13
E 298 322 13
E 299 323 13
E 300 324 13
E 302 326 13
E 303 327 13
E 304 328 13
E 305 329 13
E 306 330 13
E 308 331 13
E 310 332 13
E 311 333 13
E 313 334 13
E 314 335 13
E 315 336 13
E 316 337 13
E 317 318 5
E 318 319 5
E 319 320 5
E 320 321 5
E 321 322 5
E 322 323 5
E 323 324 5
E 324 325 5
E 325 326 5
E 326 327 5
E 327 328 5
E 328 329 5
E 329 330 5
E 332 333 5
E 334 335 5
E 335 336 5
E 336 337 5
E 317 338 13
E 318 339 13
E 319 340 13
E 320 341 13
E 321 342 13
E 322 343 13
E 323 344 13
E 324 345 13
E 325 346 13
E 326 347 13
E 327 348 13
E 328 349 13
E 330 351 13
E 331 352 13
E 332 353 13
E 333 354 13
E 334 355 13
E 336 356 13
E 337 357 13
E 338 339 5
E 339 340 5
E 340 341 5
E 341 342 5
E 342 343 5
E 343 344 5
E 344 345 5
E 345 346 5
E 346 347 5
E 347 348 5
E 348 349 5
E 349 350 5
E 350 351 5
E 353 354 5
E 356 357 5
E 338 358 13
E 340 360 13
E 341 361 13
E 342 362 13
E 343 363 13
E 344 364 13
E 345 365 13
E 347 366 13
E 349 368 13
E 350 369 13
E 351 370 13
E 352 372 13
E 353 374 13
E 354 375 13
E 355 377 13
E 356 378 13
E 357 379 13
E 358 359 5
E 359 360 5
E 360 361 5
E 361 362 5
E 362 363 5
E 363 364 5
E 364 365 5
E 366 367 5
E 367 368 5
E 368 369 5
E 369 370 5
E 370 371 5
E 371 372 5
E 372 373 5
E 373 374 5
E 374 375 5
E 375 376 5
E 376 377 5
E 378 379 5
E 358 380 13
E 361 383 13
E 362 384 13
E 363 385 13
E 364 386 13
E 365 387 13
E 366 388 13
E 367 389 13
E 368 390 13
E 369 391 13
E 370 392 13
E 371 393 13
E 372 394 13
E 373 395 13
E 374 396 13
E 375 397 13
E 376 398 13
E 377 399 13
E 378 401 13
E 379 402 13
E 380 381 5
E 381 382 5
E 382 383 5
E 383 384 5
E 384 385 5
E 385 386 5
E 386 387 5
E 388 389 5
E 389 390 5
E 390 391 5
E 391 392 5
E 392 393 5
E 393 394 5
E 394 395 5
E 395 396 5
E 396 397 5
E 397 398 5
E 398 399 5
E 399 400 5
E 400 401 5
E 401 402 5
END

SECTION Terminals
Terminals 11
T 21
T 116
T 151
T 173
T 198
T 212
T 269
T 283
T 294
T 361
T 364
END

EOF
